TERM = { '.', s0, s1, s13, s14, s2, s3, s4, s19, s20, s21};
null = '.';
s = 15;
n = 13;
ZEROARYOP = { ZEROARY_dummy };
zeroout = [ null ];
zerogas = [ 0 ];
zerosz =  [ 0 ];
zerolb =  [ 0 ];
zeroub =  [ 0 ];
UNARYOP = { MLOAD_0 };
unin = [ s4 ];
unout = [ s13 ];
ungas = [ 3 ];
unsz = [ 1 ];
unlb = [ 1 ];
unub = [ 14 ];
BINARYOP = { SHL_0 };
binin1 = [s20 ];
binin2 = [s21 ];
binout = [s14 ];
bincomm = [false ];
bingas = [3 ];
binsz = [1 ];
binlb = [ 3 ];
binub = [ 14 ];
PUSHOP = { PUSH_0, PUSH_1, PUSH_2 };
pushout = [ s19, s20, s21 ];
pushgas = [ 3, 3, 3 ];
pushsz = [ 2, 2, 5 ];
pushlb = [ 1, 1, 1 ];
pushub = [ 14, 13, 12 ];
STOROP = { STORE_dummy };
storin1 =  [ null ];
storin2 =  [ null ];
storlb =  [ 0 ];
storub =  [ 0 ];
startstack = [ s0, s1, s2, s3, s4 ];
endstack = [ s13, s14, s1, s13, s19, s13, s0, s13, s2, s13, s2, s3, s4 ];
before = [  ];
after = [  ];
